3	25
365	964	568	575	919	731	533	688	31	336	954	626	987	528	729	72	799	835	612	723	77	962	568	983	564	
49	140	816	348	740	447	112	502	80	131	504	292	848	183	468	453	600	557	453	379	107	460	513	152	366	
809	809	809	
